This is Ipopt version 3.13.4, running with linear solver mumps.
NOTE: Other linear solvers might be more efficient (see Ipopt documentation).

Number of nonzeros in equality constraint Jacobian...:     1092
Number of nonzeros in inequality constraint Jacobian.:        0
Number of nonzeros in Lagrangian Hessian.............:        0

Total number of variables............................:       78
                     variables with only lower bounds:        0
                variables with lower and upper bounds:       75
                     variables with only upper bounds:        0
Total number of equality constraints.................:       14
Total number of inequality constraints...............:        0
        inequality constraints with only lower bounds:        0
   inequality constraints with lower and upper bounds:        0
        inequality constraints with only upper bounds:        0

iter    objective    inf_pr   inf_du lg(mu)  ||d||  lg(rg) alpha_du alpha_pr  ls
   0  1.0000000e+00 1.92e-01 0.00e+00   0.0 0.00e+00    -  0.00e+00 0.00e+00   0
   1  1.0000000e+00 1.77e-01 1.34e+02  -0.9 8.46e-01    -  4.96e-01 5.09e-02f  1
   2  1.0000000e+00 1.29e-01 5.28e+01   0.1 1.84e+00    -  4.51e-01 8.21e-02f  1
   3  1.0000000e+00 4.99e-02 1.47e+16  -1.1 2.37e-01    -  9.54e-01 1.00e+00f  1
   4  1.0000000e+00 2.56e-01 2.43e+19  -1.6 1.33e+00    -  7.49e-01 1.00e+00f  1
   5  1.0000000e+00 6.76e+01 1.12e+18  -1.4 9.70e-01    -  1.00e+00 1.00e+00f  1
   6  1.0000000e+00 6.50e+01 2.79e+19  -1.4 2.95e+01    -  2.15e-02 3.51e-02h  2
   7  1.0000000e+00 6.86e+01 5.40e+22  -1.4 2.86e+02    -  4.21e-02 1.17e-02h  3
   8  1.0000000e+00 6.92e+01 5.06e+22  -1.4 2.51e+01    -  1.32e-01 6.02e-03h  4
   9  1.0000000e+00 6.93e+01 5.03e+22  -1.4 5.84e+01    -  2.47e-02 5.67e-04h  6
iter    objective    inf_pr   inf_du lg(mu)  ||d||  lg(rg) alpha_du alpha_pr  ls
  10  1.0000000e+00 6.96e+01 4.30e+22  -1.4 5.76e+01    -  1.15e-02 1.15e-02s 16
  11  1.0000000e+00 6.97e+01 3.74e+22  -1.4 1.74e+01    -  2.38e-02 2.38e-02s 16
  12  1.0000000e+00 6.96e+01 1.82e+22  -1.4 2.51e+01    -  4.60e-02 4.60e-02s 16
  13r 1.0000000e+00 6.96e+01 9.99e+02   1.2 0.00e+00    -  0.00e+00 0.00e+00R  1
  14r 1.0000000e+00 2.88e+01 3.74e+03   0.7 1.71e+04    -  1.58e-02 9.90e-04f  1
  15r 1.0000000e+00 3.28e+01 7.82e+07  -1.4 2.42e+02    -  1.66e-02 1.66e-02f  1
  16r 1.0000000e+00 9.74e+01 2.34e+07   0.1 1.45e+01    -  1.00e+00 3.34e-02f  1
  17r 1.0000000e+00 3.54e+01 6.62e+04  -0.2 2.95e-01    -  1.00e+00 9.94e-01f  1
  18r 1.0000000e+00 1.77e+01 7.77e+05  -1.1 1.48e+00    -  1.00e+00 1.00e+00f  1
  19  1.0000000e+00 6.82e+00 1.82e+17  -1.4 9.17e-01    -  1.00e+00 1.00e+00h  1
iter    objective    inf_pr   inf_du lg(mu)  ||d||  lg(rg) alpha_du alpha_pr  ls
  20  1.0000000e+00 1.21e+01 1.82e+17  -1.4 1.26e+00    -  7.04e-01 7.07e-04h 10
  21  1.0000000e+00 1.68e+01 1.03e+18  -1.4 1.96e+00    -  5.55e-01 1.00e+00H  1
  22  1.0000000e+00 1.68e+01 1.03e+18  -1.4 4.19e+00    -  1.00e+00 1.71e-06h 18
  23  1.0000000e+00 1.36e+01 1.00e+18  -1.4 2.77e+00    -  1.00e+00 5.82e-03h  7
  24  1.0000000e+00 7.29e+00 7.49e+17  -1.4 7.04e-01    -  8.85e-01 2.50e-01h  3
  25  1.0000000e+00 1.39e+01 8.65e+15  -1.4 3.80e-01    -  1.00e+00 1.00e+00h  1
  26  1.0000000e+00 9.40e+00 7.46e+15  -1.4 2.73e-01    -  1.00e+00 1.00e+00h  1
  27  1.0000000e+00 3.52e+01 2.55e+17  -1.4 4.33e-01    -  1.00e+00 1.00e+00h  1
  28  1.0000000e+00 3.42e+01 2.30e+17  -1.4 5.00e-01    -  1.00e+00 1.00e+00h  1
  29  1.0000000e+00 2.97e+01 2.98e+17  -1.4 1.31e-01    -  1.00e+00 1.00e+00h  1
iter    objective    inf_pr   inf_du lg(mu)  ||d||  lg(rg) alpha_du alpha_pr  ls
  30  1.0000000e+00 1.39e+01 3.71e+19  -1.4 1.04e+00    -  1.00e+00 1.00e+00h  1
  31  1.0000000e+00 4.74e+01 2.93e+20  -1.4 1.34e+00    -  1.00e+00 1.00e+00h  1
  32  1.0000000e+00 7.99e+01 9.05e+19  -1.4 3.63e+00    -  1.00e+00 1.00e+00h  1
  33  1.0000000e+00 4.64e+01 6.64e+20  -1.4 4.16e+00    -  1.00e+00 1.00e+00h  1
  34  1.0000000e+00 1.43e+01 1.96e+20  -1.4 1.07e+00    -  1.00e+00 1.00e+00h  1
  35  1.0000000e+00 2.69e+01 9.51e+21  -1.4 9.56e-01    -  1.00e+00 1.00e+00h  1
  36  1.0000000e+00 4.44e+01 2.87e+15  -1.4 2.51e-02    -  1.00e+00 1.00e+00h  1
  37  1.0000000e+00 1.72e+01 2.85e+16  -1.4 2.77e-02    -  1.00e+00 1.00e+00h  1
  38  1.0000000e+00 1.19e+02 9.12e+15  -1.4 2.47e-02    -  1.00e+00 1.00e+00h  1
  39  1.0000000e+00 4.38e+02 6.49e+12  -1.4 1.54e-02    -  1.00e+00 1.00e+00h  1
iter    objective    inf_pr   inf_du lg(mu)  ||d||  lg(rg) alpha_du alpha_pr  ls
  40  1.0000000e+00 8.83e+01 2.06e+12  -1.4 2.24e-02    -  1.00e+00 1.00e+00h  1
  41  1.0000000e+00 4.60e+01 5.60e+11  -1.4 1.21e-02    -  1.00e+00 1.00e+00h  1
  42  1.0000000e+00 4.38e+01 1.02e+13  -1.4 6.90e-02    -  1.00e+00 1.00e+00h  1
  43  1.0000000e+00 1.14e+02 2.45e+13  -1.4 1.37e-02    -  1.00e+00 1.00e+00h  1
  44  1.0000000e+00 3.30e+01 1.89e+07  -1.4 8.16e-03    -  1.00e+00 1.00e+00h  1
  45  1.0000000e+00 2.20e+01 1.55e+08  -1.4 1.33e-02    -  1.00e+00 1.00e+00h  1
  46  1.0000000e+00 3.28e+02 1.48e+10  -1.4 2.08e-02    -  1.00e+00 1.00e+00h  1
  47  1.0000000e+00 3.60e+01 1.90e+09  -1.4 1.68e-02    -  1.00e+00 1.00e+00h  1
  48  1.0000000e+00 7.60e+01 4.23e+06  -1.4 1.32e-02    -  1.00e+00 1.00e+00h  1
  49  1.0000000e+00 2.03e+01 1.97e+03  -1.4 1.32e-02    -  1.00e+00 1.00e+00h  1
iter    objective    inf_pr   inf_du lg(mu)  ||d||  lg(rg) alpha_du alpha_pr  ls
  50  1.0000000e+00 2.35e+01 1.36e+01  -1.4 7.23e-03    -  1.00e+00 1.00e+00h  1
  51  1.0000000e+00 1.58e+01 1.29e+04  -1.4 1.20e-02    -  1.00e+00 1.00e+00h  1
  52  1.0000000e+00 9.52e+01 3.50e+05  -1.4 3.24e-04    -  1.00e+00 1.00e+00h  1
  53  1.0000000e+00 8.15e+01 1.46e+04  -1.4 7.34e-04    -  1.00e+00 1.00e+00h  1
  54  1.0000000e+00 2.17e+02 1.34e+02  -1.4 4.04e-04    -  1.00e+00 1.00e+00h  1
  55  1.0000000e+00 4.51e+01 2.82e+01  -1.4 6.49e-03    -  1.00e+00 1.00e+00h  1
  56  1.0000000e+00 1.86e+02 1.40e+02  -1.4 1.20e-02    -  1.00e+00 1.00e+00h  1
  57  1.0000000e+00 5.85e+01 4.04e+02  -1.4 1.79e-02    -  1.00e+00 1.00e+00h  1
  58  1.0000000e+00 8.21e+00 9.24e+00  -1.4 1.50e-02    -  1.00e+00 1.00e+00h  1
  59  1.0000000e+00 5.12e+01 2.87e+03  -1.4 1.77e-01    -  1.00e+00 1.00e+00h  1
iter    objective    inf_pr   inf_du lg(mu)  ||d||  lg(rg) alpha_du alpha_pr  ls
  60  1.0000000e+00 8.53e+02 2.50e+05  -1.4 3.55e-01    -  1.00e+00 1.00e+00h  1
  61  1.0000000e+00 1.67e+01 1.15e+06  -1.4 5.93e-01    -  1.00e+00 1.00e+00h  1
  62  1.0000000e+00 1.24e+01 4.71e+06  -1.4 1.53e+00    -  1.00e+00 6.25e-02h  5
  63  1.0000000e+00 1.88e+01 1.48e+10  -1.4 8.14e-01    -  1.00e+00 1.00e+00h  1
  64  1.0000000e+00 2.75e+00 4.21e+05  -1.4 1.76e+00    -  7.63e-01 7.71e-01h  1
  65  1.0000000e+00 1.47e+00 1.39e+04  -1.4 3.83e+00    -  4.98e-01 4.84e-01h  1
  66  1.0000000e+00 1.46e+00 1.45e+04  -1.4 7.23e+00    -  2.67e-01 2.94e-02h  1
  67  1.0000000e+00 1.46e+00 1.48e+04  -1.4 1.70e+01    -  5.03e-02 4.63e-03h  2
  68  1.0000000e+00 1.46e+00 2.15e+04  -1.4 1.59e+01    -  1.57e-01 9.29e-03h  1
  69  1.0000000e+00 1.47e+00 6.28e+03  -1.4 1.59e+01    -  4.41e-02 5.33e-03h  2
iter    objective    inf_pr   inf_du lg(mu)  ||d||  lg(rg) alpha_du alpha_pr  ls
  70  1.0000000e+00 1.48e+00 1.14e+05  -1.4 6.73e+00    -  4.34e-02 1.52e-02h  2
  71  1.0000000e+00 1.49e+00 5.04e+05  -1.4 7.82e+00    -  6.00e-01 2.39e-02h  2
  72  1.0000000e+00 1.49e+00 4.24e+05  -1.4 4.24e+01    -  7.13e-02 8.51e-04H  1
  73  1.0000000e+00 1.49e+00 4.28e+05  -1.4 2.20e+01    -  4.62e-03 1.89e-04h  1
  74  1.0000000e+00 1.49e+00 5.92e+05  -1.4 4.76e+01    -  4.06e-04 1.28e-04h  1
  75  1.0000000e+00 1.49e+00 2.34e+06  -1.4 4.36e+01    -  5.50e-06 6.96e-04h  1
  76  1.0000000e+00 1.49e+00 6.75e+07  -1.4 1.97e+02    -  6.20e-05 2.21e-03f  1
  77  1.0000000e+00 1.33e+00 1.20e+08  -1.4 3.36e+00    -  4.38e-01 9.05e-02f  3
  78  1.0000000e+00 1.33e+00 1.72e+08  -1.4 2.13e+01    -  1.67e-01 4.49e-04h  1
  79  1.0000000e+00 1.34e+00 7.94e+10  -1.4 2.58e+01    -  2.03e-01 3.56e-02h  1
iter    objective    inf_pr   inf_du lg(mu)  ||d||  lg(rg) alpha_du alpha_pr  ls
  80  1.0000000e+00 1.29e+00 5.50e+12  -1.4 6.38e+00    -  1.44e-03 5.27e-02f  4
  81  1.0000000e+00 1.28e+00 1.09e+11  -1.4 1.01e+01    -  8.48e-02 1.11e-02h  3
  82  1.0000000e+00 1.26e+00 6.23e+11  -1.4 4.82e+00    -  6.64e-04 5.06e-02f  2
  83  1.0000000e+00 1.26e+00 6.23e+11  -1.4 3.11e+00    -  1.00e+00 9.12e-06h  2
  84  1.0000000e+00 1.25e+00 3.89e+11  -1.4 4.21e+00    -  1.13e-01 1.32e-02h  3
  85  1.0000000e+00 1.24e+00 1.36e+12  -1.4 5.92e+00    -  2.38e-04 1.44e-02f  2
  86  1.0000000e+00 1.24e+00 1.35e+12  -1.4 7.49e+00    -  4.01e-06 4.01e-06s  5
  87r 1.0000000e+00 1.24e+00 1.00e+03  -0.0 0.00e+00    -  0.00e+00 0.00e+00R  1
  88r 1.0000000e+00 3.46e+00 6.36e+03   1.3 3.29e+02    -  5.97e-03 1.66e-03f  1
  89r 1.0000000e+00 2.11e+00 2.33e+04   1.5 7.51e+01    -  1.54e-02 5.23e-03f  1
iter    objective    inf_pr   inf_du lg(mu)  ||d||  lg(rg) alpha_du alpha_pr  ls
  90r 1.0000000e+00 1.67e+00 3.43e+05   1.6 5.43e+01    -  9.66e-01 8.63e-03f  1
  91r 1.0000000e+00 2.68e+00 6.90e+05   1.1 1.28e+00    -  7.00e-01 6.61e-01f  1
  92r 1.0000000e+00 4.24e+01 2.10e+10   1.8 1.97e+00    -  7.76e-01 1.00e+00f  1
  93r 1.0000000e+00 4.10e+01 3.56e+09   1.7 2.71e+00    -  8.60e-01 3.16e-02h  1
  94r 1.0000000e+00 2.83e+01 1.03e+12   1.7 1.37e+00    -  4.44e-01 3.14e-01f  1
  95r 1.0000000e+00 8.87e+01 9.84e+11   1.7 1.79e+00    -  2.87e-01 5.57e-01f  1
  96r 1.0000000e+00 4.52e+01 4.90e+10   1.7 4.80e+00    -  5.96e-01 9.99e-02F  1
  97r 1.0000000e+00 1.17e+02 6.56e+06   1.7 2.24e+00    -  1.00e+00 1.00e+00f  1
  98r 1.0000000e+00 4.04e+01 2.24e+06   1.7 1.40e+00    -  1.00e+00 1.00e+00f  1
  99r 1.0000000e+00 6.41e+01 4.85e+08   1.7 1.10e+00    -  1.00e+00 5.00e-01f  2
iter    objective    inf_pr   inf_du lg(mu)  ||d||  lg(rg) alpha_du alpha_pr  ls
 100r 1.0000000e+00 1.41e+01 2.29e+08   1.7 1.20e+00    -  1.32e-01 1.35e-01H  1
 101r 1.0000000e+00 3.86e+01 8.01e+09   1.7 6.66e-01    -  1.44e-01 5.17e-02f  3
 102r 1.0000000e+00 3.49e+00 9.36e+09   1.7 2.29e+00    -  2.03e-01 2.66e-01h  1
 103r 1.0000000e+00 2.96e+00 3.95e+10   1.7 7.75e+00    -  2.61e-01 1.24e-02f  4
 104r 1.0000000e+00 1.35e+01 9.18e+10   1.7 3.28e+00  -2.0 7.41e-01 7.79e-03f  5
 105r 1.0000000e+00 3.63e+00 4.54e+06   1.7 1.42e+00    -  2.47e-01 4.86e-01h  1
 106r 1.0000000e+00 3.74e+00 4.59e+06   1.7 7.15e-01    -  1.38e-01 1.30e-01h  1
 107r 1.0000000e+00 3.96e+00 2.80e+06   1.7 1.64e+00    -  1.99e-01 2.00e-01h  1
 108r 1.0000000e+00 3.86e+00 6.19e+05   1.7 1.80e+00    -  2.12e-01 2.35e-01f  1
 109r 1.0000000e+00 4.10e+00 9.15e+05   1.7 9.90e-01    -  9.40e-01 4.21e-01f  1
iter    objective    inf_pr   inf_du lg(mu)  ||d||  lg(rg) alpha_du alpha_pr  ls
 110r 1.0000000e+00 4.10e+00 1.44e+06   1.7 6.30e-01    -  2.79e-01 5.78e-01h  1
 111  1.0000000e+00 3.82e+00 4.40e+03  -1.4 8.42e+00    -  1.35e-01 3.01e-02f  1
 112  1.0000000e+00 7.39e+00 1.48e+05  -1.4 1.33e+01    -  1.30e-01 1.05e-01f  2
 113  1.0000000e+00 3.72e+00 2.87e+07  -1.4 1.54e+01    -  1.48e-01 9.63e-02h  2
 114  1.0000000e+00 3.71e+00 8.70e+08  -1.4 3.32e+00    -  3.39e-02 6.67e-04h  4
 115  1.0000000e+00 3.71e+00 3.91e+09  -1.4 3.39e+00    -  4.32e-01 6.10e-04h  4
 116  1.0000000e+00 3.71e+00 4.96e+09  -1.4 2.64e+00    -  3.23e-02 3.99e-04h  4
 117r 1.0000000e+00 3.71e+00 1.00e+03   0.1 0.00e+00    -  0.00e+00 3.59e-07R 14
 118r 1.0000000e+00 8.33e+00 2.28e+05   2.0 4.81e+02    -  9.68e-03 3.20e-03f  1
 119r 1.0000000e+00 2.47e+01 3.95e+04   2.0 1.13e+02    -  9.84e-01 5.66e-03f  1
iter    objective    inf_pr   inf_du lg(mu)  ||d||  lg(rg) alpha_du alpha_pr  ls
 120r 1.0000000e+00 2.41e+01 3.57e+04  -4.0 4.53e+00    -  2.07e-01 2.50e-02f  1
 121r 1.0000000e+00 2.98e+01 5.28e+08   1.5 5.21e+00    -  2.17e-01 5.06e-01f  1
 122r 1.0000000e+00 2.91e+01 2.01e+08   3.0 2.91e+01    -  1.56e-02 2.45e-02f  1
 123r 1.0000000e+00 2.90e+01 1.15e+09   1.8 2.07e+01    -  3.19e-02 4.88e-02h  1
 124r 1.0000000e+00 3.37e+01 5.52e+11   1.8 2.43e+01    -  7.21e-02 2.23e-01h  1
 125r 1.0000000e+00 1.83e+01 4.26e+11   1.8 4.10e+03    -  8.76e-03 8.70e-04f  2
 126r 1.0000000e+00 2.48e+01 5.50e+11   1.8 1.45e+03    -  2.59e-02 1.24e-03f  2
 127r 1.0000000e+00 3.14e+01 2.96e+11   1.8 2.44e+01    -  7.72e-02 8.15e-01h  1
 128r 1.0000000e+00 2.15e+01 2.76e+11   1.8 1.11e+01    -  4.39e-01 2.86e-01f  1
 129r 1.0000000e+00 1.94e+01 2.46e+11   1.8 1.36e+01    -  3.51e-01 4.37e-06f 12
iter    objective    inf_pr   inf_du lg(mu)  ||d||  lg(rg) alpha_du alpha_pr  ls
 130r 1.0000000e+00 2.39e+01 2.89e+11   1.8 1.35e+01    -  6.50e-02 1.64e-05f 14
 131r 1.0000000e+00 2.33e+01 2.66e+11   1.8 3.54e+00    -  6.18e-02 1.77e-05f 13
 132r 1.0000000e+00 1.71e+01 1.06e+10   1.8 5.86e+03    -  1.82e-02 3.32e-03f  1
 133r 1.0000000e+00 1.70e+01 2.88e+09   1.8 4.08e+01    -  4.92e-01 5.97e-03f  3
 134r 1.0000000e+00 1.17e+01 3.73e+08   1.8 1.23e+01    -  6.65e-01 2.23e-01F  1
 135r 1.0000000e+00 2.40e+00 7.80e+07   1.5 2.44e+00    -  7.82e-01 6.22e-01f  1
 136r 1.0000000e+00 2.19e+00 4.63e+08   1.8 6.82e-01    -  1.35e-01 1.72e-01F  1
 137r 1.0000000e+00 2.10e+01 2.53e+11   1.6 5.10e-01    -  2.55e-01 1.78e-01f  1
 138r 1.0000000e+00 2.21e+01 1.73e+10   2.6 1.77e+00    -  1.26e-01 1.00e+00f  1
 139r 1.0000000e+00 2.59e+01 1.29e+11   2.0 2.82e+00    -  1.00e+00 3.51e-01f  1
iter    objective    inf_pr   inf_du lg(mu)  ||d||  lg(rg) alpha_du alpha_pr  ls
 140r 1.0000000e+00 2.82e+01 5.30e+09   2.0 2.37e-01    -  1.00e+00 1.00e+00f  1
 141r 1.0000000e+00 1.06e+01 4.57e+07   2.0 2.21e+01    -  5.49e-01 7.35e-02f  1
 142r 1.0000000e+00 4.37e+01 2.15e+11   2.0 1.31e+00    -  1.00e+00 8.07e-01f  1
 143r 1.0000000e+00 8.16e+00 9.87e+09   2.0 2.84e-01    -  3.72e-01 3.61e-01h  1
 144r 1.0000000e+00 1.37e+01 1.82e+10   2.0 5.51e-01    -  1.00e+00 5.00e-01f  2
 145r 1.0000000e+00 2.43e+01 4.43e+09   1.9 2.39e-01    -  8.74e-01 1.00e+00h  1
 146r 1.0000000e+00 7.42e+00 5.83e+09   1.9 1.25e-01    -  1.00e+00 6.25e-02f  5
 147r 1.0000000e+00 6.71e+00 1.01e+10   1.9 8.38e-02    -  1.00e+00 1.00e+00f  1
 148r 1.0000000e+00 1.74e+01 5.65e+09   1.9 3.52e-01    -  1.00e+00 5.00e-01f  2
 149r 1.0000000e+00 9.24e+00 6.28e+09   1.9 8.86e-02    -  1.00e+00 1.00e+00H  1
iter    objective    inf_pr   inf_du lg(mu)  ||d||  lg(rg) alpha_du alpha_pr  ls
 150r 1.0000000e+00 2.17e+01 1.64e+09   1.9 1.93e-01    -  1.00e+00 5.00e-01f  2
 151r 1.0000000e+00 2.05e+01 2.53e+09   1.9 7.51e-01    -  4.80e-01 1.80e-02f  5
 152r 1.0000000e+00 1.40e+01 2.17e+09   1.9 8.87e-01    -  1.00e+00 1.25e-01h  4
 153r 1.0000000e+00 1.41e+01 1.56e+10   1.9 5.02e+02    -  4.57e-04 2.14e-04f  2
 154r 1.0000000e+00 1.01e+01 6.03e+09   1.9 4.64e-01    -  3.62e-01 1.28e-01h  3
 155r 1.0000000e+00 8.07e+00 1.50e+11   1.9 3.85e-01    -  3.75e-01 5.23e-01H  1
 156r 1.0000000e+00 1.83e+01 2.25e+11   1.9 1.79e+00    -  4.63e-01 1.56e-01f  1
 157r 1.0000000e+00 7.46e+01 4.53e+12   1.9 2.77e-01    -  1.00e+00 1.00e+00f  1
 158r 1.0000000e+00 1.09e+01 3.25e+11   1.9 1.82e+00    -  2.50e-01 2.64e-01f  1
 159r 1.0000000e+00 8.74e+00 1.01e+10   1.9 6.17e-01   4.0 3.39e-01 2.80e-01h  1
iter    objective    inf_pr   inf_du lg(mu)  ||d||  lg(rg) alpha_du alpha_pr  ls
 160r 1.0000000e+00 9.69e+00 8.65e+09   1.9 1.92e+00    -  4.89e-01 1.91e-01F  1
 161r 1.0000000e+00 1.48e+01 8.31e+08   1.9 8.09e+00    -  2.08e-01 6.39e-02f  1
 162r 1.0000000e+00 6.44e+00 1.80e+09   2.0 5.44e+00    -  1.91e-01 6.57e-02F  1
 163r 1.0000000e+00 2.00e+01 6.69e+09   1.8 8.11e-01    -  1.00e+00 1.00e+00f  1
 164r 1.0000000e+00 2.77e+02 7.69e+08   1.8 6.62e-01    -  1.00e+00 1.00e+00f  1
 165r 1.0000000e+00 3.46e+02 2.43e+08   1.8 2.40e-01    -  7.46e-01 1.00e+00f  1
 166r 1.0000000e+00 1.08e+02 1.27e+06   1.8 2.33e-03    -  1.00e+00 1.00e+00h  1
 167r 1.0000000e+00 4.61e+01 5.57e+06   1.8 8.01e-04    -  1.00e+00 1.00e+00h  1
 168r 1.0000000e+00 1.97e+01 2.78e+06   1.8 5.51e-04    -  1.00e+00 1.00e+00h  1
 169r 1.0000000e+00 2.08e+01 2.08e+06   1.8 7.11e-04    -  1.00e+00 5.00e-01h  2
iter    objective    inf_pr   inf_du lg(mu)  ||d||  lg(rg) alpha_du alpha_pr  ls
 170r 1.0000000e+00 1.36e+01 9.76e+05   1.8 8.70e-04    -  1.00e+00 1.00e+00h  1
 171r 1.0000000e+00 8.77e+00 3.90e+07   1.8 2.45e-02    -  1.00e+00 5.00e-01h  2
 172r 1.0000000e+00 8.93e+00 2.69e+09   1.8 2.38e-02    -  1.00e+00 1.00e+00H  1
 173r 1.0000000e+00 1.01e+01 7.75e+08   1.8 4.82e-02    -  1.00e+00 3.12e-02f  6
 174r 1.0000000e+00 1.03e+01 6.36e+08   1.8 3.88e-02    -  1.00e+00 1.56e-02f  7
 175r 1.0000000e+00 1.48e+01 3.96e+05   1.8 2.66e-02   3.5 1.00e+00 1.00e+00f  1
 176r 1.0000000e+00 1.47e+01 1.33e+07   1.8 8.26e-03    -  1.00e+00 1.00e+00h  1
 177r 1.0000000e+00 8.33e+01 9.39e+06   1.8 2.25e-03    -  1.00e+00 1.00e+00h  1
 178r 1.0000000e+00 1.40e+01 9.33e+08   1.8 1.31e-02    -  1.00e+00 1.00e+00H  1
 179r 1.0000000e+00 6.94e+02 1.66e+09   1.8 1.22e+00    -  1.00e+00 1.00e+00f  1
iter    objective    inf_pr   inf_du lg(mu)  ||d||  lg(rg) alpha_du alpha_pr  ls
 180r 1.0000000e+00 7.68e+00 5.50e+08   1.8 1.19e-01    -  4.65e-01 4.96e-01h  1
 181r 1.0000000e+00 1.04e+01 1.36e+10   1.8 1.43e-01    -  1.00e+00 7.52e-01f  1
 182r 1.0000000e+00 4.37e+00 7.32e+09   1.8 1.04e-01    -  2.14e-01 1.71e-01H  1
 183r 1.0000000e+00 1.40e+02 2.69e+11   1.9 3.51e+00    -  1.00e+00 1.81e-02f  2
 184r 1.0000000e+00 1.57e+01 3.81e+08   1.8 6.12e-02    -  1.00e+00 1.00e+00f  1
 185r 1.0000000e+00 1.55e+01 5.90e+08   1.8 9.61e-02    -  6.11e-01 3.08e-01h  2
 186r 1.0000000e+00 1.51e+01 1.48e+08   1.8 1.93e-01    -  1.00e+00 1.95e-03h 10
 187r 1.0000000e+00 9.96e+00 1.11e+08   1.8 8.41e-02    -  1.00e+00 1.00e+00H  1
 188r 1.0000000e+00 1.12e+01 2.70e+07   1.8 2.31e-02    -  1.00e+00 2.50e-01h  3
 189r 1.0000000e+00 1.24e+01 9.56e+08   1.8 2.93e-02    -  1.00e+00 5.00e-01h  2
iter    objective    inf_pr   inf_du lg(mu)  ||d||  lg(rg) alpha_du alpha_pr  ls
 190r 1.0000000e+00 1.39e+01 2.11e+09   1.8 3.90e-02    -  1.00e+00 1.00e+00f  1
 191r 1.0000000e+00 8.73e+00 8.93e+08   1.8 2.51e-02    -  1.00e+00 3.12e-02h  6
 192r 1.0000000e+00 8.73e+00 5.53e+03   1.8 1.17e-02    -  0.00e+00 4.77e-07R 22
 193r 1.0000000e+00 1.27e+01 1.54e+10   1.1 1.13e-01   3.9 1.00e+00 8.28e-01f  1
 194r 1.0000000e+00 2.06e+01 3.17e+09   1.1 5.17e+02    -  7.46e-01 1.43e-02f  1
 195r 1.0000000e+00 2.74e+01 3.37e+08   1.1 1.71e+00    -  1.00e+00 7.54e-01f  1
 196r 1.0000000e+00 8.11e+01 4.71e+05   0.1 6.52e-01    -  1.00e+00 1.00e+00f  1
 197r 1.0000000e+00 4.05e+01 4.16e+11   2.0 1.01e-01   5.3 1.00e+00 1.27e-01f  1
 198r 1.0000000e+00 1.07e+01 9.50e+08  -3.9 3.36e-02    -  2.94e-01 1.54e-01h  1
 199r 1.0000000e+00 1.14e+01 7.69e+09   0.6 1.75e-01    -  1.37e-01 2.52e-01h  1
iter    objective    inf_pr   inf_du lg(mu)  ||d||  lg(rg) alpha_du alpha_pr  ls
 200r 1.0000000e+00 1.04e+01 6.62e+11   1.7 1.01e+00    -  8.77e-02 7.06e-02f  2
 201r 1.0000000e+00 3.47e+01 7.95e+09   1.5 4.64e-01    -  8.63e-01 1.00e+00F  1
 202r 1.0000000e+00 3.29e+01 3.50e+09   1.4 2.27e-01    -  2.12e-01 1.00e+00h  1
 203r 1.0000000e+00 7.93e+01 4.88e+10   1.4 2.83e-01    -  4.59e-01 4.45e-01f  1
 204r 1.0000000e+00 1.86e+01 1.45e+11   1.4 2.93e-01    -  5.93e-01 2.81e-01f  1
 205r 1.0000000e+00 2.14e+01 1.19e+10   1.4 1.77e-01    -  1.00e+00 7.63e-01f  1
 206r 1.0000000e+00 2.81e+01 3.23e+10   1.4 1.41e-01    -  5.80e-02 2.67e-01h  1
 207r 1.0000000e+00 9.00e+00 2.49e+10   1.4 2.81e+00    -  1.00e+00 1.70e-01f  1
 208r 1.0000000e+00 1.35e+01 2.89e+11   0.1 2.63e-01    -  1.00e+00 9.73e-01f  1
 209r 1.0000000e+00 3.21e+01 3.66e+08   0.8 7.51e-03    -  1.00e+00 1.00e+00f  1
iter    objective    inf_pr   inf_du lg(mu)  ||d||  lg(rg) alpha_du alpha_pr  ls
 210r 1.0000000e+00 1.18e+01 2.89e+08   0.7 2.82e-01    -  4.95e-01 4.56e-01H  1
 211r 1.0000000e+00 5.09e+01 7.27e+09   1.3 4.89e-01    -  6.06e-01 3.37e-01f  1
 212r 1.0000000e+00 4.49e+00 1.84e+10   1.1 1.16e-01    -  7.39e-01 1.00e+00f  1
 213r 1.0000000e+00 5.25e+01 1.94e+10  -4.9 8.85e+00    -  1.31e-01 2.09e-02f  1
 214r 1.0000000e+00 2.06e+01 2.47e+10   0.9 6.83e-01    -  1.00e+00 2.55e-02h  1
 215r 1.0000000e+00 4.20e+00 1.04e+10   0.9 1.54e+01    -  1.76e-01 1.92e-01f  2
 216r 1.0000000e+00 4.12e+01 7.75e+09   1.4 1.97e+00    -  1.98e-01 1.52e-01f  1
 217r 1.0000000e+00 1.91e+01 2.49e+10   1.0 8.85e-01    -  1.00e+00 2.57e-01h  1
 218r 1.0000000e+00 5.09e+01 1.21e+09   1.0 8.72e-01    -  7.80e-01 1.59e-01F  1
 219r 1.0000000e+00 1.97e+01 4.69e+10   1.0 4.11e+00    -  6.95e-02 5.07e-02h  1
iter    objective    inf_pr   inf_du lg(mu)  ||d||  lg(rg) alpha_du alpha_pr  ls
 220r 1.0000000e+00 4.75e+00 3.64e+10   1.0 5.41e+00    -  3.48e-01 1.77e-01h  3
 221r 1.0000000e+00 2.04e+01 2.73e+10   1.0 6.45e-01    -  2.86e-01 3.92e-01f  1
 222r 1.0000000e+00 1.12e+01 6.15e+10   1.0 1.79e+00    -  7.51e-01 1.40e-02H  1
 223r 1.0000000e+00 2.68e+01 2.28e+10   1.0 6.91e-02    -  4.86e-01 3.51e-01f  1
 224r 1.0000000e+00 9.42e+00 6.43e+10   1.0 5.53e-01    -  1.00e+00 8.27e-02h  4
 225r 1.0000000e+00 5.63e+01 7.65e+10   1.0 5.31e-02    -  3.69e-01 7.09e-01F  1
 226r 1.0000000e+00 1.79e+01 3.07e+11   1.0 7.61e-03    -  1.00e+00 1.00e+00f  1
 227r 1.0000000e+00 1.49e+01 3.13e+11   1.0 8.48e-02    -  1.88e-01 8.56e-07h 19
 228r 1.0000000e+00 6.94e+01 1.48e+11   1.0 1.84e-01    -  1.00e+00 4.84e-02f  4
 229r 1.0000000e+00 2.35e+01 1.02e+07   1.0 3.30e-01    -  1.00e+00 1.00e+00f  1
iter    objective    inf_pr   inf_du lg(mu)  ||d||  lg(rg) alpha_du alpha_pr  ls
 230r 1.0000000e+00 1.28e+01 1.88e+05   1.0 8.98e-01    -  1.00e+00 1.00e+00f  1
 231r 1.0000000e+00 1.02e+01 3.15e+05   1.0 2.74e-01    -  1.00e+00 5.00e-01h  2
 232r 1.0000000e+00 1.79e+01 2.00e+10   1.7 5.76e-02   4.8 1.00e+00 4.40e-01f  1
 233r 1.0000000e+00 7.19e+01 3.95e+09   1.6 2.03e-01    -  2.91e-01 3.93e-01f  1
 234r 1.0000000e+00 1.18e+01 1.15e+09   1.6 1.94e-01    -  1.00e+00 1.00e+00f  1
 235r 1.0000000e+00 1.62e+01 2.86e+10   1.6 1.05e-01    -  8.61e-01 1.00e+00h  1
 236r 1.0000000e+00 1.36e+01 1.96e+10   1.6 3.99e+00    -  8.47e-01 5.61e-03f  3
 237r 1.0000000e+00 3.00e+01 2.10e+09   1.6 4.50e-02    -  1.00e+00 1.00e+00f  1
 238r 1.0000000e+00 1.07e+01 8.76e+08   1.6 2.32e-02    -  1.00e+00 1.00e+00f  1
 239r 1.0000000e+00 2.13e+01 2.17e+08   1.6 1.26e-02    -  1.00e+00 1.25e-01h  4
iter    objective    inf_pr   inf_du lg(mu)  ||d||  lg(rg) alpha_du alpha_pr  ls
 240r 1.0000000e+00 9.57e+00 1.36e+09   1.6 1.44e-02    -  1.00e+00 1.00e+00h  1
 241r 1.0000000e+00 9.41e+00 1.29e+09   1.6 5.86e-03    -  1.00e+00 1.25e-01h  4
 242r 1.0000000e+00 5.66e+00 8.30e+10   1.6 7.24e-01    -  8.90e-01 4.88e-01h  1
 243r 1.0000000e+00 1.59e+01 3.98e+10   1.6 9.75e-02    -  4.20e-01 2.10e-01f  2
 244r 1.0000000e+00 1.38e+01 2.16e+10   1.6 3.06e-01    -  1.00e+00 2.50e-01h  3
 245r 1.0000000e+00 6.51e+00 5.20e+10   1.6 1.36e-01    -  6.61e-01 1.00e+00h  1
 246r 1.0000000e+00 9.39e+00 2.99e+09   1.6 8.45e-01    -  1.00e+00 1.12e-01f  4
 247r 1.0000000e+00 1.06e+01 1.76e+10   1.6 2.08e+00    -  1.00e+00 1.00e+00f  1
 248r 1.0000000e+00 1.62e+01 2.01e+09   1.6 1.64e+00    -  1.00e+00 1.86e-01f  1
 249r 1.0000000e+00 1.04e+01 1.56e+09   1.6 3.74e+00    -  5.73e-01 3.59e-01h  1
iter    objective    inf_pr   inf_du lg(mu)  ||d||  lg(rg) alpha_du alpha_pr  ls
 250r 1.0000000e+00 1.03e+01 1.17e+10   1.6 7.40e-01    -  1.00e+00 1.20e-01h  1
 251r 1.0000000e+00 8.51e+00 1.96e+09   1.6 7.23e-01    -  1.77e-01 1.25e-01h  1
 252r 1.0000000e+00 7.17e+00 8.31e+09   1.6 1.61e+00    -  2.62e-01 4.38e-02f  3
 253r 1.0000000e+00 6.56e+00 2.51e+10   1.6 1.21e+00    -  9.29e-02 1.29e-01H  1
 254r 1.0000000e+00 5.07e+00 1.17e+10   1.6 3.90e-01    -  3.57e-01 3.62e-01F  1
 255r 1.0000000e+00 2.62e+00 1.03e+11   1.6 4.27e+00    -  5.03e-01 1.18e-02f  2
 256r 1.0000000e+00 1.94e+01 4.20e+10   1.8 1.34e+00    -  8.99e-01 2.50e-01f  3
 257r 1.0000000e+00 5.75e+00 7.41e+09   1.7 5.75e-01    -  4.37e-01 1.69e-01h  1
 258r 1.0000000e+00 1.20e+01 3.79e+09   1.7 2.93e+00    -  1.00e+00 1.39e-01f  1
 259r 1.0000000e+00 2.29e+01 4.25e+10   1.7 1.45e-01    -  1.00e+00 1.00e+00f  1
iter    objective    inf_pr   inf_du lg(mu)  ||d||  lg(rg) alpha_du alpha_pr  ls
 260r 1.0000000e+00 1.25e+01 3.07e+10   1.7 4.43e-01    -  1.00e+00 1.00e+00h  1
 261r 1.0000000e+00 3.91e+00 1.91e+09   1.7 1.55e+00    -  4.10e-01 4.88e-01h  1
 262r 1.0000000e+00 9.98e+00 1.18e+10   1.7 1.65e+00    -  1.00e+00 1.20e-01F  1
 263r 1.0000000e+00 1.30e+01 5.29e+08   1.7 1.26e+00    -  1.00e+00 1.00e+00f  1
 264r 1.0000000e+00 2.71e+01 2.36e+09   1.7 1.21e+00    -  1.00e+00 1.00e+00f  1
 265r 1.0000000e+00 7.15e+00 1.78e+06   1.7 4.61e-01    -  1.00e+00 1.00e+00h  1
 266r 1.0000000e+00 3.73e+00 5.51e+09   1.7 1.78e+00    -  1.00e+00 1.00e+00h  1
 267  1.0000000e+00 3.55e+00 2.16e+13  -1.4 1.41e+00  -4.0 4.81e-01 1.91e-02h  2
 268  1.0000000e+00 3.52e+00 2.04e+13  -1.4 1.07e+00    -  5.22e-02 8.36e-03h  2
 269  1.0000000e+00 3.42e+00 3.41e+12  -1.4 3.59e+00    -  3.49e-01 5.76e-03h  8
iter    objective    inf_pr   inf_du lg(mu)  ||d||  lg(rg) alpha_du alpha_pr  ls
 270  1.0000000e+00 3.42e+00 1.99e+12  -1.4 1.55e+00    -  4.16e-02 2.21e-05h  9
 271  1.0000000e+00 3.42e+00 2.07e+13  -1.4 1.47e+00    -  6.51e-01 2.85e-03h  2
 272  1.0000000e+00 3.41e+00 2.28e+13  -1.4 1.48e+00    -  4.41e-02 2.96e-03h  1
 273  1.0000000e+00 2.51e+00 5.77e+13  -1.4 1.42e+01    -  9.94e-02 8.29e-02h  1
 274  1.0000000e+00 2.45e+00 2.90e+13  -1.4 1.73e+00    -  5.07e-01 2.98e-02h  6
 275  1.0000000e+00 2.33e+00 1.35e+13  -1.4 1.23e+00    -  1.78e-01 1.25e-01h  4
 276  1.0000000e+00 2.33e+00 9.95e+12  -1.4 3.02e-01    -  1.32e-01 3.12e-05h  3
 277  1.0000000e+00 2.06e+00 6.43e+14  -1.4 4.91e-01    -  1.00e+00 1.32e-01h  1
 278  1.0000000e+00 2.06e+00 1.17e+15  -1.4 3.48e-01    -  1.00e+00 5.81e-03h  7
